HUN,8,6,433
0,25,5,22,1,10,4,21,2,23,3,6
2,4,1,10,3,6,5,27,4,29,0,26
1,6,3,29,5,19,2,12,0,17,4,21
5,13,1,20,0,2,4,6,3,25,2,28
2,18,4,13,3,2,1,24,0,25,5,29
3,19,5,18,1,2,0,22,4,2,2,11
4,19,0,1,1,9,3,28,2,5,5,6
5,16,3,4,4,20,0,21,2,28,1,17
